(set-info :source  loris-7.ddns.comp.nus.edu.sg/~project/hip/) 
;Variables declarations
(declare-fun size1_6538 () Int)
(declare-fun m_5629 () Int)
(declare-fun m_5547 () Int)
(declare-fun size1_5540 () Int)
(declare-fun size2_5543 () Int)
(declare-fun m_5560 () Int)
(declare-fun m_5586 () Int)
(declare-fun size2_6541 () Int)
(declare-fun size1_6559 () Int)
(declare-fun size2_6562 () Int)
(declare-fun m_5599 () Int)
(declare-fun m_5476 () Int)
(declare-fun m_5464 () Int)
(declare-fun flted_220_5455 () Int)
(declare-fun m_5441 () Int)
(declare-fun size2_5427 () Int)
(declare-fun size1_5424 () Int)
(declare-fun m () Int)
;Relations declarations
;Axioms assertions
;Antecedent
(assert (= size1_6538 m_5629))
(assert (<= 0 m_5629))
(assert (<= 0 m_5586))
(assert (<= 0 m_5547))
(assert (= m_5629 m_5547))
(assert (<= 0 m_5560))
(assert (<= 0 size2_5543))
(assert (<= 0 size1_5540))
(assert (= m_5547 size1_5540))
(assert (= m_5464 (+ (+ size2_5543 1) size1_5540)))
(assert (= m_5560 size2_5543))
(assert (= m_5586 m_5560))
(assert (= size1_6559 m_5586))
(assert (<= 0 m_5599))
(assert (= size2_6541 (+ (+ size2_6562 1) size1_6559)))
(assert (= size2_6562 m_5599))
(assert (<= 0 m_5476))
(assert (= m_5599 m_5476))
(assert (<= 0 size2_5427))
(assert (= m_5476 size2_5427))
(assert (<= 0 m_5464))
(assert (<= 0 flted_220_5455))
(assert (= m_5464 flted_220_5455))
(assert (<= 0 m_5441))
(assert (= flted_220_5455 (+ 1 m_5441)))
(assert (<= 0 size1_5424))
(assert (= m_5441 size1_5424))
(assert (= m (+ (+ size2_5427 1) size1_5424)))
;Negation of Consequence
(assert (not (<= 0 m)))
(check-sat)